coords = array2d(1..64, 1..2, [355, 568, 488, 835, 278, 222, 192, 415, 261,
    210, 845, 505, 429, 280, 60, 17, 715, 603, 210, 981, 905, 651,
    692, 107, 727, 498, 810, 290, 266, 325, 182, 137, 460, 454, 228,
    855, 729, 170, 866, 882, 909, 976, 406, 919, 619, 901, 523, 438,
    683, 893, 20, 131, 344, 679, 252, 257, 19, 135, 441, 337, 826,
    382, 917, 596, 82, 925, 175, 992, 506, 565, 173, 174, 112, 228,
    535, 456, 455, 687, 689, 778, 122, 134, 731, 843, 22, 387, 893,
    183, 896, 963, 624, 636, 942, 149, 534, 811, 166, 179, 391, 500,
    584, 206, 432, 198, 175, 125, 610, 498, 123, 8, 764, 514, 444,
    670, 516, 2, 598, 330, 125, 574, 210, 222, 461, 660, 625, 161,
    330, 999]);

n = 64;

